
Log started (V11.0.0) Sun Apr 13 13:00:47 2008

Tried aggregator 1 time.
Reduced MIP has 150 rows, 5001 columns, and 10050 nonzeros.
Presolve time =    0.05 sec.
Clique table members: 100.
MIP emphasis: balance optimality and feasibility.
MIP search method: dynamic search.
Parallel mode: none, using 1 thread.
Root relaxation solution time =    0.13 sec.

        Nodes                                         Cuts/
   Node  Left     Objective  IInf  Best Integer     Best Node    ItCnt     Gap

*     0+    0                         4892.0000        5.8320      734   99.88%
*     0+    0                           15.0000        5.8320      734   61.12%
      0     0        6.0182    79       15.0000      Fract: 2      757   59.88%
*     0+    0                           14.0000        6.0182      757   57.01%
      0     0        7.6000    67       14.0000      Cuts: 51      805   45.71%
*     0+    0                           13.0000        7.6000      805   41.54%
      0     0        8.0000    56       13.0000      Cuts: 19      831   38.46%
*     0+    0                           12.0000        8.0000      831   33.33%
*     0+    0                           11.0000        8.0000      831   27.27%
      0     0       10.0000    14       11.0000       Cuts: 9      856    9.09%
*     0+    0                           10.0000       10.0000      856    0.00%

Clique cuts applied:  7
Mixed integer rounding cuts applied:  22
Zero-half cuts applied:  2

Solution pool: 7 solutions saved.

MIP - Integer optimal solution:  Objective = 1.0000000000e+001
Solution time =    0.42 sec.  Iterations = 856  Nodes = 0


Incumbent solution
Variable Name           Solution Value
Cmax                         10.000000
X_1_14                        1.000000
X_2_43                        1.000000
X_3_34                        1.000000
X_4_21                        1.000000
X_5_36                        1.000000
X_6_44                        1.000000
X_7_14                        1.000000
X_8_25                        1.000000
X_9_49                        1.000000
X_10_47                       1.000000
X_11_4                        1.000000
X_12_2                        1.000000
X_13_9                        1.000000
X_14_27                       1.000000
X_15_6                        1.000000
X_16_20                       1.000000
X_17_6                        1.000000
X_18_23                       1.000000
X_19_17                       1.000000
X_20_5                        1.000000
X_21_32                       1.000000
X_22_1                        1.000000
X_23_41                       1.000000
X_24_8                        1.000000
X_25_17                       1.000000
X_26_18                       1.000000
X_27_20                       1.000000
X_28_10                       1.000000
X_29_46                       1.000000
X_30_44                       1.000000
X_31_12                       1.000000
X_32_34                       1.000000
X_33_19                       1.000000
X_34_22                       1.000000
X_35_38                       1.000000
X_36_7                        1.000000
X_37_45                       1.000000
X_38_24                       1.000000
X_39_33                       1.000000
X_40_30                       1.000000
X_41_2                        1.000000
X_42_5                        1.000000
X_43_48                       1.000000
X_44_1                        1.000000
X_45_18                       1.000000
X_46_28                       1.000000
X_47_40                       1.000000
X_48_46                       1.000000
X_49_7                        1.000000
X_50_36                       1.000000
X_51_13                       1.000000
X_52_24                       1.000000
X_53_43                       1.000000
X_54_12                       1.000000
X_55_25                       1.000000
X_56_42                       1.000000
X_57_15                       1.000000
X_58_30                       1.000000
X_59_19                       1.000000
X_60_11                       1.000000
X_61_47                       1.000000
X_62_47                       1.000000
X_63_2                        1.000000
X_64_41                       1.000000
X_65_38                       1.000000
X_66_31                       1.000000
X_67_21                       1.000000
X_68_20                       1.000000
X_69_16                       1.000000
X_70_32                       1.000000
X_71_9                        1.000000
X_72_28                       1.000000
X_73_24                       1.000000
X_74_3                        1.000000
X_75_36                       1.000000
X_76_38                       1.000000
X_77_37                       1.000000
X_78_46                       1.000000
X_79_21                       1.000000
X_80_15                       1.000000
X_81_33                       1.000000
X_82_39                       1.000000
X_83_11                       1.000000
X_84_37                       1.000000
X_85_12                       1.000000
X_86_22                       1.000000
X_87_16                       1.000000
X_88_45                       1.000000
X_89_4                        1.000000
X_90_26                       1.000000
X_91_8                        1.000000
X_92_25                       1.000000
X_93_5                        1.000000
X_94_25                       1.000000
X_95_35                       1.000000
X_96_29                       1.000000
X_97_28                       1.000000
X_98_50                       1.000000
X_99_23                       1.000000
X_100_25                      1.000000
All other variables in the range 1-5001 are 0.
